QBPP_HJ*_40_025_10_1
40 228 5
50 16 16 42 18 43 19 32 48 12 48 4 28 35 49 27 23 26 10 39 7 41 47 22 44 38 8 37 11 22 2 43 21 45 10 26 33 47 29 21
    0   32    0    0    0    0    0    0    0    0    0   39   32    0    0    0    0    0    0    0    0   31   -8    0    0    0    0    0    0    0  -23  -20    0    0  -41   29    0    0    0    0
   32    0    0    0    0    0  -20    0    0    0    0    0   36    0    0    0    0    0    0    0    0  -27    0   17  -48  -14    0    0    0    0    0    0    0    0    0  -16    0    0  -18   11
    0    0    0    2   33    0    0    0   36   32  -35    0    0    0    0    0   34    0    0    0    0    0    0    0    0    0    0    0    0    0    0    0  -22    0    0    0    0    0    0    0
    0    0    2    0    0    0    0    0    0    0    0    0  -38    0    0  -46    0  -45    0    0    0    0    0    0    0    0    0    0    0    0    0   37    0    9    3    0    0    0   47    0
    0    0   33    0    0    0    0    0    0    0    0    0    0    0    0    0    0    0   48    0   24   37    0   12    0    0    0   -4    0    0    0    0    0    0    0    0    0    0  -34    0
    0    0    0    0    0    0    0    0    0    0    0    0    0    0    0    0    0  -14    0   -5    0    0    0    0    0    0    0    0    0    0    0    0    0    4    0    0    0  -46    0    0
    0  -20    0    0    0    0    0   31    0    0    0    0    0    0  -11   39    0    0  -28    0  -13   26    0  -22    0    0    0    0    0    0    0  -46    0   22    0    0    0    0    0    0
    0    0    0    0    0    0   31    0   -9    0  -50   20   30    0  -46    0    0   46    0   21    0    1    0    0    0    0   48    0    0    0    0   19    0    0    0   14    0    0   18   13
    0    0   36    0    0    0    0   -9    0  -17    0    0    0    0    0  -28   42    0    0  -28  -19   -2    0   47  -25  -19    0    0    0  -28    0    0    0    0  -26    0    0    0  -46    0
    0    0   32    0    0    0    0    0  -17    0    0    0  -21    0    0   19    0   10    3    0  -35    0    0    0   41    0    0    0    0    0    0  -20    0  -11    0    6    0    0  -38    0
    0    0  -35    0    0    0    0  -50    0    0    0  -33    0    0   17    0    0   31    9    0    0    0   22  -42  -33    0    0   40    0    0   44   23    4    0    0    0  -30    0    0    0
   39    0    0    0    0    0    0   20    0    0  -33    0    0   -9    0    0    0    0    0  -11    0    0    0    0    0   15    0    0   17    0    0    0    0    0    0   30    0    0    0  -11
   32   36    0  -38    0    0    0   30    0  -21    0    0    0    0    0    0    0    0    0    0    0  -25    0  -13    0   14  -46    6    0    0    0    0    0    0    0    0    0  -34    0    0
    0    0    0    0    0    0    0    0    0    0    0   -9    0    0    0    0   41    0    0    0  -11   49    0  -40   47    0   -3    0    0    0    0    0    0    0    0    0    0    0    0    0
    0    0    0    0    0    0  -11  -46    0    0   17    0    0    0    0    0    0    0    0    0    0    0    0    0    0    0    0    0   49  -14    0   47    0    0    0    0    0    0    0    0
    0    0    0  -46    0    0   39    0  -28   19    0    0    0    0    0    0    0    0    0   33    0    0    0    0    0    0    0    0    0    0   -3    0   29    0    0    0   11    0    0    0
    0    0   34    0    0    0    0    0   42    0    0    0    0   41    0    0    0    0    0    0    0   -3    0    0   34   -1    0  -38  -27  -16  -28   25    0   23    0    0  -46    0    0    0
    0    0    0  -45    0  -14    0   46    0   10   31    0    0    0    0    0    0    0   -9    0  -31    0  -46    0    0    0   23    0    0    0    0    0    0    0    0    0    0   17    0    0
    0    0    0    0   48    0  -28    0    0    3    9    0    0    0    0    0    0   -9    0    0    0    0   18    0    0    0  -44    0  -24    0    0    0    0   44    0    0    0    0    0    0
    0    0    0    0    0   -5    0   21  -28    0    0  -11    0    0    0   33    0    0    0    0    0    0   43  -17    0  -11    0    0    0   24    0    0    0    0    0    0    0    0    0    0
    0    0    0    0   24    0  -13    0  -19  -35    0    0    0  -11    0    0    0  -31    0    0    0    0    0    0  -30    0   37    0    0   -8    0    0    0    0    0    0    0    0    0    0
   31  -27    0    0   37    0   26    1   -2    0    0    0  -25   49    0    0   -3    0    0    0    0    0    0    0   -3   38  -13   14    0    0   14   12    3   -1    0    0    0    0   44    0
   -8    0    0    0    0    0    0    0    0    0   22    0    0    0    0    0    0  -46   18   43    0    0    0    0  -49    0    0    0    0    0   24  -36    0    0    0   19    0    0    0   31
    0   17    0    0   12    0  -22    0   47    0  -42    0  -13  -40    0    0    0    0    0  -17    0    0    0    0    0    0    0    0   -8  -23    0    0    0    0    0    0    0    0    0    0
    0  -48    0    0    0    0    0    0  -25   41  -33    0    0   47    0    0   34    0    0    0  -30   -3  -49    0    0  -36    1    0   -9    0    0    0    0    0    0    0    0    0  -24    0
    0  -14    0    0    0    0    0    0  -19    0    0   15   14    0    0    0   -1    0    0  -11    0   38    0    0  -36    0    0    0    0  -23    0    0    0    0    0    0    0    0    0   14
    0    0    0    0    0    0    0   48    0    0    0    0  -46   -3    0    0    0   23  -44    0   37  -13    0    0    1    0    0    0   -9    0    0    0    0    0    0    0    0    0   -9    0
    0    0    0    0   -4    0    0    0    0    0   40    0    6    0    0    0  -38    0    0    0    0   14    0    0    0    0    0    0   28    0  -31   20    0    0   15   11    0   -4    0    0
    0    0    0    0    0    0    0    0    0    0    0   17    0    0   49    0  -27    0  -24    0    0    0    0   -8   -9    0   -9   28    0    0    0  -32    0    0    0    0    9    0    0    0
    0    0    0    0    0    0    0    0  -28    0    0    0    0    0  -14    0  -16    0    0   24   -8    0    0  -23    0  -23    0    0    0    0    0   27    7    0    0  -11    0    0    0  -30
  -23    0    0    0    0    0    0    0    0    0   44    0    0    0    0   -3  -28    0    0    0    0   14   24    0    0    0    0  -31    0    0    0    0    0    0    0    0    0    0    0    0
  -20    0    0   37    0    0  -46   19    0  -20   23    0    0    0   47    0   25    0    0    0    0   12  -36    0    0    0    0   20  -32   27    0    0  -42    0    0    0    0   35    0    0
    0    0  -22    0    0    0    0    0    0    0    4    0    0    0    0   29    0    0    0    0    0    3    0    0    0    0    0    0    0    7    0  -42    0    0   45    0    6   -2    0    0
    0    0    0    9    0    4   22    0    0  -11    0    0    0    0    0    0   23    0   44    0    0   -1    0    0    0    0    0    0    0    0    0    0    0    0  -42    0    0  -14    0    0
  -41    0    0    3    0    0    0    0  -26    0    0    0    0    0    0    0    0    0    0    0    0    0    0    0    0    0    0   15    0    0    0    0   45  -42    0   28   -5    0   33    0
   29  -16    0    0    0    0    0   14    0    6    0   30    0    0    0    0    0    0    0    0    0    0   19    0    0    0    0   11    0  -11    0    0    0    0   28    0    0    0   32    0
    0    0    0    0    0    0    0    0    0    0  -30    0    0    0    0   11  -46    0    0    0    0    0    0    0    0    0    0    0    9    0    0    0    6    0   -5    0    0    0    0    0
    0    0    0    0    0  -46    0    0    0    0    0    0  -34    0    0    0    0   17    0    0    0    0    0    0    0    0    0   -4    0    0    0   35   -2  -14    0    0    0    0  -10   17
    0  -18    0   47  -34    0    0   18  -46  -38    0    0    0    0    0    0    0    0    0    0    0   44    0    0  -24    0   -9    0    0    0    0    0    0    0   33   32    0  -10    0    0
    0   11    0    0    0    0    0   13    0    0    0  -11    0    0    0    0    0    0    0    0    0    0   31    0    0   14    0    0    0  -30    0    0    0    0    0    0    0   17    0    0
